2000 408732 0.3 0.
2001 420232 0.3 0.
2002 432107 0.3 0.
2003 444344 0.3 0.
2004 456919 0.3 0.
2005 469805 0.3 0.
2006 483000 0.3 0.
2007 496490 0.3 0.
2008 510221 0.3 0.
2009 524125 0.3 0.
2010 538148 0.3 0.
